Li1 Co1 O2                              
   1.00000000000000     
     4.7869935630266571   -1.4175556745703162   -0.0257536186148181
     4.7869935630266571    1.4175556745703162   -0.0257536186148181
     4.3802442920610165    0.0000000000000000    2.3955978708826522
   Li   Co   O 
     1     1     2
Direct
  0.5000000000000000  0.5000000000000000  0.5000000000000000
  0.0000000000000000  0.0000000000000000  0.0000000000000000
  0.2602039785095972  0.2602039785095972  0.2602039785095972
  0.7397960214904028  0.7397960214904028  0.7397960214904028
 
  0.00000000E+00  0.00000000E+00  0.00000000E+00
  0.00000000E+00  0.00000000E+00  0.00000000E+00
  0.00000000E+00  0.00000000E+00  0.00000000E+00
  0.00000000E+00  0.00000000E+00  0.00000000E+00